[runlim] version:		2.0.0rc12
[runlim] host:			ap-Precision-7550
[runlim] time limit:		311040000 seconds
[runlim] real time limit:	600 seconds
[runlim] space limit:		14000 MB
[runlim] argv[0]:		python3
[runlim] argv[1]:		-u
[runlim] argv[2]:		mip_no.py
[runlim] argv[3]:		scen10
[runlim] start:			Wed Mar 25 02:55:07 2026
[runlim] child:			68220
--- Building MIP model for 680 variables ---
--- Solving with CPLEX MIP ---
Version identifier: 22.1.1.0 | 2022-11-28 | 9160aff4d
CPXPARAM_Read_DataCheck                          1
CPXPARAM_MIP_Tolerances_MIPGap                   0
Legacy callback                                  i
Infeasibility row 'c63':  0  = 1.
Presolve time = 0.01 sec. (10.24 ticks)

Root node processing (before b&c):
  Real time             =    0.02 sec. (18.56 ticks)
Parallel b&c, 12 threads:
  Real time             =    0.00 sec. (0.00 ticks)
  Sync time (average)   =    0.00 sec.
  Wait time (average)   =    0.00 sec.
                          ------------
Total (root+branch&cut) =    0.02 sec. (18.56 ticks)
CPLEX Error  1217: No solution exists.
No solution found or the problem is infeasible.
Total time: 0.31s
Memory used: 41.10 MB
==============================
[runlim] end:			Wed Mar 25 02:55:08 2026
[runlim] status:		ok
[runlim] result:		0
[runlim] children:		1
[runlim] processes:		2
[runlim] real:			0.36 seconds
[runlim] time:			0.30 seconds
[runlim] space:			56 MB
[runlim] load:			1.86 maximum
[runlim] samples:		4
